nNurses = 84;
nHours = 26;
minHours = 10;
maxHours = 16;
maxConsec = 6;
maxPresence = 20;
demand = [43, 39, 37, 35, 32, 36, 31, 28, 29, 27, 26, 22, 18, 23, 23, 19, 15, 12, 14, 12, 15, 11, 8, 12, 14, 16];
